
  32    4
  10   10   10   10

   0   0   0   0   0   1 2 
   4   0   1   1   1   1 3 
   5   1   4   4   0   1 4 
   4   6   2   0   1   1 5 
   8   1   0   4   5   1 6 
  10   3   4   0   4   1 7 
   7   4   3   0   6   1 8 
  10   3   2   0   6   1 9 
   7   9   0   6   2   1 10 
   5   4   4   0   7   1 11 
   7   4   0   3   3   2 23 12 
   7   0   3   3   6   2 31 13 
   1   4   7   0   3   1 14 
   4   2   5   0   4   1 15 
   7   0   3   5   4   1 16 
   2   5   6   0   4   1 17 
   4   5   0   2   4   1 18 
   6   4   6   0   6   1 19 
   7   6   2   0   4   1 20 
  10   5   0   3   2   1 21 
   2   3   4   7   0   1 22 
   1   2   8   0   4   1 24 
   8   3   3   8   0   1 24 
   2   6   3   3   0   1 25 
   7   0   2   4   5   2 30 26 
  10   0   9   3   4   1 27 
   8   4   2   2   0   1 28 
  10   0   4   5   3   1 29 
   1   3   4   5   0   1 32
  10   5   0   5   4   1 32
  10   0   5   3   4   1 32
   0   0   0   0   0   0 
